Subject To
    vyroba:        x_1 + 2x_2 <= 8
 baleni: 2 *x_1 + 1 * x_2 <= 6
Maximize
            3x_1+ 2 * x_2
Generals
 x_2 x_1 x_3
Bounds
 56 <= x_1<100 \ komentar workuje
 x_2<= -inf
 x_3 free
 x_4 <= 5
 lol <= free
End